52240.68,52.92,64.18
52826.35,52.33,63.47
46510.41,59.44,72.08
42419.26,65.17,79.03
44776.82,61.74,74.87
42445.19,65.13,78.99
50671.8,54.56,66.16
45684.81,60.51,73.39
47932.01,57.68,69.95
46388.36,59.6,72.27
46781.81,59.1,71.66
49104.81,56.3,68.27
45184.11,61.19,74.2
50135.86,55.14,66.87
40438.84,68.36,82.9
51738.78,53.43,64.8
48218.64,57.33,69.53
51456.18,53.73,65.16
50310.68,54.95,66.64
50083.51,55.2,66.94
